proyfinal/src/viki/013/experimentInOfficeAgust.take6.output/f5b8d24e-372e-4125-859f-6cd74ab7b9ca.als.dat
{'cnf.clauses': '118081',
 'cnf.totvars': '69608',
 'conflict literals': '97',
 'conflicts': '30',
 'decisions': '5957',
 'memused.mb': '18.34',
 'outcome': 'UNSAT',
 'propagations': '25087',
 'restarts': '1',
 'solver.msecs': 33,
 'task.msecs': 102}
