proyfinal/src/viki/013/experimentInOfficeAgust.take6.output/f5b8d24e-372e-4125-859f-6cd74ab7b9ca.als.out
Reading from standard input... Use '--help' for help.
============================[ Problem Statistics ]=============================
|                                                                             |
|  Number of variables:         69608                                         |
|  Number of clauses:          118081                                         |
|  Parse time:                   0.02 s                                       |
|                                                                             |
============================[ Search Statistics ]==============================
| Conflicts |          ORIGINAL         |          LEARNT          | Progress |
|           |    Vars  Clauses Literals |    Limit  Clauses Lit/Cl |          |
===============================================================================
===============================================================================
restarts              : 1
conflicts             : 30             (896 /sec)
decisions             : 5957           (0.00 % random) (177964 /sec)
propagations          : 25087          (749470 /sec)
conflict literals     : 97             (0.00 % deleted)
Memory used           : 18.34 MB
CPU time              : 0.033473 s

UNSATISFIABLE
